* MOL main file generated by charmmgen
* author: Victor Bazterra 2004 CHPC
* 

Read rtf card name cand_003_CHARMM.rtf

Read param card name cand_003_CHARMM.prm

Read sequence card
* Reading the coordinates of residue
* 
    1
MOL
Generate MOL setup
Read coor card free
* Residues coordinate
* 
   35
    1    1 MOL  C1    -3.78300  -0.62900  -2.06600
    2    1 MOL  C2    -3.06000  -0.37600  -0.77000
    3    1 MOL  C3    -1.67300  -0.13600  -0.79600
    4    1 MOL  C4    -0.94900   0.11800   0.37900
    5    1 MOL  C5     0.51100   0.33900   0.31000
    6    1 MOL  O1     1.16200  -0.59200  -0.49100
    7    1 MOL  C6     2.52200  -0.50100  -0.64200
    8    1 MOL  C7     3.13700  -1.46400  -1.44300
    9    1 MOL  C8     4.51900  -1.42800  -1.64000
   10    1 MOL  C9     5.28600  -0.42900  -1.03700
   11    1 MOL  C10    4.67000   0.53200  -0.23900
   12    1 MOL  O2     5.48000   1.48200   0.32000
   13    1 MOL  C11    3.28700   0.49400  -0.04100
   14    1 MOL  C12    2.60100   1.48400   0.79000
   15    1 MOL  O3     3.20500   2.39800   1.34800
   16    1 MOL  C13    1.13300   1.35200   0.94200
   17    1 MOL  O4     0.49200   2.30000   1.71800
   18    1 MOL  C14   -1.63500   0.11300   1.59800
   19    1 MOL  C15   -3.01200  -0.12100   1.64000
   20    1 MOL  C16   -3.74300  -0.36400   0.46500
   21    1 MOL  C17   -5.23400  -0.61200   0.55100
   22    1 MOL  F1    -5.96100   0.27200  -0.18800
   23    1 MOL  F2    -5.72900  -0.52300   1.81900
   24    1 MOL  F3    -5.58700  -1.85200   0.10800
   25    1 MOL  H1    -3.08600  -0.59500  -2.87700
   26    1 MOL  H2    -4.53300   0.12100  -2.20900
   27    1 MOL  H3    -4.24600  -1.59400  -2.03400
   28    1 MOL  H4    -1.17700  -0.14600  -1.70100
   29    1 MOL  H5     2.57000  -2.20300  -1.88900
   30    1 MOL  H6     4.97400  -2.14000  -2.23200
   31    1 MOL  H7     6.30700  -0.40200  -1.18300
   32    1 MOL  H8     6.40300   1.46500   0.15800
   33    1 MOL  H9     0.98700   2.98000   2.13000
   34    1 MOL  H10   -1.11900   0.28400   2.47500
   35    1 MOL  H11   -3.50000  -0.11500   2.55000
Energy ihbfrq 0 inbfrq -1
Open write card unit 14 name tmp.out
Write energy card unit 14
* MOL energy before the optimization
* 
Minimise Abnr Nstep 5000 Tolgrd 0.00001
Write energy card unit 14
* MOL energy after optimization
* 
Write coor card unit 14
* MOL energy after optimization
* 
