* MOL main file generated by charmmgen
* author: Victor Bazterra 2004 CHPC
* 

Read rtf card name cand_003_CHARMM.rtf

Read param card name cand_003_CHARMM.prm

Read sequence card
* Reading the coordinates of residue
* 
    1
MOL
Generate MOL setup
Read coor card free
* Residues coordinate
* 
   35
    1    1 MOL  C1   180.05400  14.17700  44.74200
    2    1 MOL  C2   180.36700  15.62400  44.46600
    3    1 MOL  C3   179.89400  16.60800  45.35400
    4    1 MOL  C4   180.16600  17.97000  45.15400
    5    1 MOL  C5   179.62800  18.97400  46.09600
    6    1 MOL  O1   178.24000  18.96300  46.16400
    7    1 MOL  C6   177.61000  19.84600  47.00300
    8    1 MOL  C7   176.21500  19.81100  47.03000
    9    1 MOL  C8   175.51100  20.68200  47.86300
   10    1 MOL  C9   176.20200  21.58800  48.67100
   11    1 MOL  C10  177.59400  21.62100  48.64400
   12    1 MOL  O2   178.20600  22.53100  49.46100
   13    1 MOL  C11  178.29700  20.74900  47.80800
   14    1 MOL  C12  179.75900  20.75100  47.74900
   15    1 MOL  O3   180.43800  21.51300  48.43500
   16    1 MOL  C13  180.40900  19.79300  46.82500
   17    1 MOL  O4   181.79100  19.79300  46.78700
   18    1 MOL  C14  180.91300  18.34200  44.03100
   19    1 MOL  C15  181.39200  17.37700  43.14200
   20    1 MOL  C16  181.13200  16.01100  43.34400
   21    1 MOL  C17  181.66900  14.99500  42.35900
   22    1 MOL  F1   181.54600  15.39700  41.06400
   23    1 MOL  F2   181.04200  13.78500  42.42800
   24    1 MOL  F3   182.99300  14.73000  42.54600
   25    1 MOL  H1   180.01800  14.01100  45.82900
   26    1 MOL  H2   179.08000  13.92200  44.29900
   27    1 MOL  H3   180.83500  13.54200  44.29900
   28    1 MOL  H4   179.29700  16.30200  46.22600
   29    1 MOL  H5   175.67000  19.09700  46.39500
   30    1 MOL  H6   174.41100  20.65500  47.88300
   31    1 MOL  H7   175.64700  22.27400  49.32800
   32    1 MOL  H8   178.98500  22.96700  49.17600
   33    1 MOL  H9   182.27800  19.35500  47.45700
   34    1 MOL  H10  181.12500  19.40500  43.84600
   35    1 MOL  H11  181.98300  17.69200  42.26900
Energy ihbfrq 0 inbfrq -1
Open write card unit 14 name tmp.out
Write energy card unit 14
* MOL energy before the optimization
* 
Minimise Abnr Nstep 5000 Tolgrd 0.00001
Write energy card unit 14
* MOL energy after optimization
* 
Write coor card unit 14
* MOL energy after optimization
* 
