* MOL main file generated by charmmgen
* author: Victor Bazterra 2004 CHPC
* 

Read rtf card name FAD_CHARMM.rtf

Read param card name FAD_CHARMM.prm

Read sequence card
* Reading the coordinates of residue
* 
    1
MOL
Generate MOL setup
Read coor card free
* Residues coordinate
* 
   84
    1    1 MOL  P1    24.52600  35.34100 -18.86200
    2    1 MOL  O1    23.71500  34.13400 -18.43500
    3    1 MOL  O2    25.65200  35.93800 -18.10900
    4    1 MOL  O3    23.44200  36.45200 -19.10400
    5    1 MOL  C1    22.08400  36.08700 -19.29800
    6    1 MOL  C2    21.18900  37.08900 -18.56400
    7    1 MOL  O4    19.84400  36.83200 -18.97400
    8    1 MOL  C3    21.22800  36.87300 -17.03600
    9    1 MOL  O5    21.38700  38.10700 -16.33000
   10    1 MOL  C4    19.87800  36.24700 -16.73400
   11    1 MOL  O6    19.34400  36.62500 -15.51300
   12    1 MOL  C5    18.99400  36.80700 -17.82000
   13    1 MOL  N1    17.83800  35.97400 -18.20900
   14    1 MOL  C6    17.64900  34.61400 -18.27700
   15    1 MOL  N2    16.37700  34.36100 -18.76100
   16    1 MOL  C7    15.83000  35.56700 -19.04400
   17    1 MOL  C8    14.61400  35.92800 -19.61100
   18    1 MOL  N3    13.77700  34.98500 -20.09800
   19    1 MOL  N4    14.34800  37.26200 -19.76600
   20    1 MOL  C9    15.20800  38.25300 -19.39600
   21    1 MOL  N5    16.44000  37.92600 -18.84900
   22    1 MOL  C10   16.71600  36.57700 -18.66700
   23    1 MOL  N6    33.85900  33.19600 -17.88000
   24    1 MOL  C11   35.07800  33.78900 -17.94400
   25    1 MOL  O7    35.25200  34.45000 -18.91800
   26    1 MOL  N7    36.02500  33.64800 -16.94000
   27    1 MOL  C12   35.73000  32.82200 -15.83400
   28    1 MOL  O8    36.54300  32.61000 -14.87900
   29    1 MOL  C13   34.50000  32.18700 -15.81700
   30    1 MOL  N8    34.17600  31.34200 -14.78500
   31    1 MOL  C14   32.87600  30.86800 -14.65600
   32    1 MOL  C15   32.51500  30.39300 -13.38600
   33    1 MOL  C16   31.18400  30.33700 -13.01300
   34    1 MOL  C17   30.87200  29.57400 -11.73100
   35    1 MOL  C18   30.16300  30.75400 -13.90700
   36    1 MOL  C19   28.73300  30.59900 -13.50300
   37    1 MOL  C20   30.48300  31.25600 -15.19500
   38    1 MOL  C21   31.88100  31.29000 -15.55900
   39    1 MOL  N9    32.31400  31.83000 -16.75800
   40    1 MOL  C22   33.55400  32.41100 -16.81600
   41    1 MOL  C23   31.30900  32.08900 -17.82300
   42    1 MOL  C24   30.86000  33.52600 -17.85400
   43    1 MOL  O9    30.44000  33.75300 -16.54200
   44    1 MOL  C25   29.73800  33.53500 -18.90900
   45    1 MOL  O10   30.28200  33.01300 -20.13900
   46    1 MOL  C26   29.19800  34.88700 -19.28200
   47    1 MOL  O11   28.90200  35.64700 -18.14200
   48    1 MOL  C27   27.90500  34.63600 -20.06700
   49    1 MOL  O12   27.41500  35.89700 -20.38800
   50    1 MOL  P2    26.04700  36.01700 -21.16000
   51    1 MOL  O13   25.86300  37.52900 -21.23500
   52    1 MOL  O14   26.28600  35.40000 -22.57100
   53    1 MOL  O15   25.00700  35.14700 -20.37400
   54    1 MOL  H1    21.91700  35.10500 -18.90800
   55    1 MOL  H2    21.85300  36.09400 -20.34300
   56    1 MOL  H3    21.52500  38.07900 -18.79100
   57    1 MOL  H4    22.05400  36.26600 -16.73000
   58    1 MOL  H5    20.66300  38.70900 -16.56400
   59    1 MOL  H6    19.96100  35.18100 -16.69600
   60    1 MOL  H7    19.24400  37.59000 -15.48800
   61    1 MOL  H8    18.59300  37.73500 -17.46800
   62    1 MOL  H9    18.34300  33.89800 -18.01100
   63    1 MOL  H10   13.98600  34.03100 -19.97600
   64    1 MOL  H11   12.95800  35.25200 -20.57500
   65    1 MOL  H12   14.94400  39.24200 -19.52200
   66    1 MOL  H13   36.88900  34.11700 -16.99800
   67    1 MOL  H14   33.24600  30.08400 -12.72700
   68    1 MOL  H15   31.78300  29.36100 -11.21200
   69    1 MOL  H16   30.37700  28.65700 -11.97300
   70    1 MOL  H17   30.23700  30.16800 -11.10800
   71    1 MOL  H18   28.68400  30.21000 -12.50700
   72    1 MOL  H19   28.24400  29.92400 -14.17400
   73    1 MOL  H20   28.24700  31.55200 -13.53900
   74    1 MOL  H21   29.75000  31.58200 -15.84300
   75    1 MOL  H22   30.45600  31.46700 -17.64900
   76    1 MOL  H23   31.76900  31.87100 -18.76400
   77    1 MOL  H24   31.56600  34.28500 -18.12000
   78    1 MOL  H25   29.79800  33.07200 -16.28500
   79    1 MOL  H26   28.94500  32.96900 -18.46700
   80    1 MOL  H27   30.99000  33.59700 -20.45300
   81    1 MOL  H28   29.92200  35.42900 -19.85400
   82    1 MOL  H29   28.24600  35.17800 -17.60200
   83    1 MOL  H30   27.19900  34.10300 -19.46500
   84    1 MOL  H31   28.07900  34.04400 -20.94100
Energy ihbfrq 0 inbfrq -1
Open write card unit 14 name tmp.out
Write energy card unit 14
* MOL energy before the optimization
* 
Minimise Abnr Nstep 5000 Tolgrd 0.00001
Write energy card unit 14
* MOL energy after optimization
* 
Write coor card unit 14
* MOL energy after optimization
* 
